
Gurobi 9.5.0 (linux64) logging started Tue Nov  7 13:14:12 2023

Set parameter LogFile to value "/lustre1/scratch/348/vsc34888/JointResearch/05.Models/06.Benchmarking/D.Representative_days_based_on_RES_and_Demand/9n_ByStages_nc50/openStarNet_9n_ByStages_nc50.log"
Set parameter Method to value 2
Set parameter MIPFocus to value 1
Set parameter Presolve to value 2
Set parameter RINS to value 100
Set parameter MIPGap to value 0.01
Set parameter Threads to value 36
Set parameter TimeLimit to value 604800
Set parameter IterationLimit to value 760000000
Gurobi Optimizer version 9.5.0 build v9.5.0rc5 (linux64)
Thread count: 36 physical cores, 36 logical processors, using up to 36 threads
Optimize a model with 13787 rows, 7196 columns and 41174 nonzeros
Model fingerprint: 0x87656b8b
Variable types: 7160 continuous, 36 integer (36 binary)
Coefficient statistics:
  Matrix range     [8e-04, 2e+03]
  Objective range  [1e+00, 1e+00]
  Bounds range     [4e-04, 2e+00]
  RHS range        [4e-04, 1e+00]
Presolve removed 4937 rows and 2382 columns
Presolve time: 0.06s
Presolved: 8850 rows, 4814 columns, 31328 nonzeros
Variable types: 4778 continuous, 36 integer (36 binary)
Found heuristic solution: objective 626.7834723
Root relaxation presolved: 8850 rows, 4814 columns, 31328 nonzeros

Root barrier log...

Ordering time: 0.00s

Barrier statistics:
 Dense cols : 36
 AA' NZ     : 1.191e+05
 Factor NZ  : 2.388e+05 (roughly 8 MB of memory)
 Factor Ops : 9.771e+06 (less than 1 second per iteration)
 Threads    : 36

                  Objective                Residual
Iter       Primal          Dual         Primal    Dual     Compl     Time
   0   3.68300348e+05 -2.14868837e+07  6.30e+00 1.59e+02  3.72e+03     0s
   1   5.14996828e+04 -6.15283696e+06  7.03e-01 1.21e-09  4.86e+02     0s
   2   1.15761122e+04 -8.58064285e+05  7.48e-03 4.09e-10  5.02e+01     0s
   3   3.29445216e+03 -1.60794487e+04  4.82e-13 5.10e-12  1.11e+00     0s
   4   7.99184328e+02 -3.96536811e+03  3.77e-13 1.21e-12  2.73e-01     0s
   5   4.82889564e+02 -1.13445994e+03  3.26e-13 4.55e-13  9.28e-02     0s
   6   3.07403662e+02 -5.26648055e+02  1.79e-13 4.55e-13  4.79e-02     0s
   7   1.74151276e+02 -1.44405789e+02  2.56e-13 9.09e-13  1.83e-02     0s
   8   1.15006311e+02  1.57022125e+01  5.84e-13 4.55e-13  5.70e-03     0s
   9   9.04136362e+01  7.33636418e+01  3.21e-12 9.09e-13  9.78e-04     0s
  10   8.55124201e+01  8.16466293e+01  2.13e-12 9.09e-13  2.22e-04     0s
  11   8.45806757e+01  8.34139722e+01  4.58e-12 9.09e-13  6.69e-05     0s
  12   8.44641726e+01  8.43867757e+01  2.44e-12 9.09e-13  4.44e-06     0s
  13   8.44166715e+01  8.44165930e+01  9.48e-12 9.09e-13  4.50e-09     0s
  14   8.44166496e+01  8.44166496e+01  3.18e-11 9.09e-13  7.15e-15     0s

Barrier solved model in 14 iterations and 0.29 seconds (0.20 work units)
Optimal objective 8.44166496e+01


Root relaxation: objective 8.441665e+01, 372 iterations, 0.21 seconds (0.08 work units)

    Nodes    |    Current Node    |     Objective Bounds      |     Work
 Expl Unexpl |  Obj  Depth IntInf | Incumbent    BestBd   Gap | It/Node Time

     0     0   84.41665    0    6  626.78347   84.41665  86.5%     -    0s
H    0     0                     542.8159414   84.41665  84.4%     -    0s
H    0     0                      94.6981758   93.50895  1.26%     -    0s
     0     0   93.50895    0    1   94.69818   93.50895  1.26%     -    0s
H    0     0                      94.6981519   93.50895  1.26%     -    0s
     0     0   94.69815    0    1   94.69815   94.69815  0.00%     -    0s

Cutting planes:
  Gomory: 1
  Implied bound: 1
  MIR: 70
  Relax-and-lift: 9

Explored 1 nodes (626 simplex iterations) in 0.50 seconds (0.31 work units)
Thread count was 36 (of 36 available processors)

Solution count 4: 94.6982 94.6982 542.816 626.783 

Optimal solution found (tolerance 1.00e-02)
Best objective 9.469815193572e+01, best bound 9.469815193572e+01, gap 0.0000%

Gurobi 9.5.0 (linux64) logging started Tue Nov  7 13:14:14 2023

Set parameter LogFile to value "/lustre1/scratch/348/vsc34888/JointResearch/05.Models/06.Benchmarking/D.Representative_days_based_on_RES_and_Demand/9n_ByStages_nc50/openStarNet_9n_ByStages_nc50.log"
Set parameter Method to value 2
Set parameter MIPFocus to value 1
Set parameter Presolve to value 2
Set parameter RINS to value 100
Set parameter MIPGap to value 0.01
Set parameter Threads to value 36
Set parameter TimeLimit to value 604800
Set parameter IterationLimit to value 760000000
No parameters matching 'relax_integrality' found
Gurobi Optimizer version 9.5.0 build v9.5.0rc5 (linux64)
Thread count: 36 physical cores, 36 logical processors, using up to 36 threads
Optimize a model with 13787 rows, 7160 columns and 33938 nonzeros
Model fingerprint: 0x25963030
Coefficient statistics:
  Matrix range     [8e-04, 2e+03]
  Objective range  [1e+00, 1e+00]
  Bounds range     [4e-04, 2e+00]
  RHS range        [4e-04, 2e+01]
Presolve removed 12037 rows and 4116 columns
Presolve time: 0.01s
Presolved: 1750 rows, 3044 columns, 6594 nonzeros

Ordering time: 0.00s

Barrier statistics:
 AA' NZ     : 4.600e+03
 Factor NZ  : 1.785e+04 (roughly 2 MB of memory)
 Factor Ops : 2.194e+05 (less than 1 second per iteration)
 Threads    : 1

                  Objective                Residual
Iter       Primal          Dual         Primal    Dual     Compl     Time
   0   3.83866981e+05 -1.25717308e+07  3.34e+00 4.55e-13  4.43e+03     0s
   1   5.89681542e+04 -2.44184825e+06  3.53e-01 3.23e-12  5.25e+02     0s
   2   1.36788345e+04 -3.84530803e+05  8.05e-03 2.05e-12  6.06e+01     0s
   3   3.60305659e+03 -1.46412086e+04  4.75e-05 5.22e-12  2.73e+00     0s
   4   7.03142361e+02 -1.98555034e+03  1.33e-07 9.09e-13  4.02e-01     0s
   5   3.58009428e+02 -5.27020344e+02  6.06e-09 9.09e-13  1.32e-01     0s
   6   2.28166911e+02 -1.90910172e+02  2.28e-09 9.09e-13  6.27e-02     0s
   7   1.43086700e+02  3.30785751e+00  6.84e-10 9.09e-13  2.09e-02     0s
   8   1.01378259e+02  7.77960547e+01  7.13e-11 9.09e-13  3.53e-03     0s
   9   9.56519039e+01  9.04316300e+01  8.07e-12 6.82e-13  7.81e-04     0s
  10   9.48897078e+01  9.39658724e+01  7.91e-12 6.82e-13  1.38e-04     0s
  11   9.47333872e+01  9.45597730e+01  1.35e-11 6.82e-13  2.60e-05     0s
  12   9.46995273e+01  9.46958312e+01  1.84e-11 9.09e-13  5.53e-07     0s
  13   9.46981533e+01  9.46981496e+01  1.20e-11 9.09e-13  5.53e-10     0s
  14   9.46981519e+01  9.46981519e+01  1.68e-12 4.55e-13  5.53e-13     0s

Barrier solved model in 14 iterations and 0.03 seconds (0.03 work units)
Optimal objective 9.46981519e+01

Crossover log...

     593 DPushes remaining with DInf 0.0000000e+00                 0s
       0 DPushes remaining with DInf 0.0000000e+00                 0s

      60 PPushes remaining with PInf 0.0000000e+00                 0s
       0 PPushes remaining with PInf 0.0000000e+00                 0s

  Push phase complete: Pinf 0.0000000e+00, Dinf 2.5091040e-13      0s

Iteration    Objective       Primal Inf.    Dual Inf.      Time
     111    9.4698152e+01   0.000000e+00   0.000000e+00      0s

Solved in 111 iterations and 0.05 seconds (0.03 work units)
Optimal objective  9.469815194e+01

Gurobi 9.5.0 (linux64) logging started Wed Nov 15 15:05:59 2023

Set parameter LogFile to value "/lustre1/scratch/348/vsc34888/JointResearch/05.Models/06.Benchmarking/D.Representative_days_based_on_RES_and_Demand/9n_ByStages_nc50/openStarNet_9n_ByStages_nc50.log"
Set parameter Method to value 2
Set parameter MIPFocus to value 1
Set parameter Presolve to value 2
Set parameter RINS to value 100
Set parameter MIPGap to value 0.01
Set parameter Threads to value 36
Set parameter TimeLimit to value 604800
Set parameter IterationLimit to value 760000000
Gurobi Optimizer version 9.5.0 build v9.5.0rc5 (linux64)
Thread count: 36 physical cores, 36 logical processors, using up to 36 threads
Optimize a model with 14079 rows, 7350 columns and 42647 nonzeros
Model fingerprint: 0xe0605fce
Variable types: 7314 continuous, 36 integer (36 binary)
Coefficient statistics:
  Matrix range     [9e-04, 2e+03]
  Objective range  [1e+00, 1e+00]
  Bounds range     [4e-04, 2e+00]
  RHS range        [4e-04, 1e+00]
Presolve removed 5052 rows and 2435 columns
Presolve time: 0.06s
Presolved: 9027 rows, 4915 columns, 31960 nonzeros
Variable types: 4879 continuous, 36 integer (36 binary)
Found heuristic solution: objective 788.3429984
Root relaxation presolved: 9027 rows, 4915 columns, 31960 nonzeros

Root barrier log...

Ordering time: 0.00s

Barrier statistics:
 Dense cols : 36
 AA' NZ     : 1.215e+05
 Factor NZ  : 2.478e+05 (roughly 8 MB of memory)
 Factor Ops : 1.036e+07 (less than 1 second per iteration)
 Threads    : 36

                  Objective                Residual
Iter       Primal          Dual         Primal    Dual     Compl     Time
   0   3.80626398e+05 -1.70792246e+07  6.50e+00 1.58e+02  2.95e+03     0s
   1   5.44271802e+04 -4.99541134e+06  7.39e-01 1.15e-09  3.91e+02     0s
   2   1.06921138e+04 -7.13453731e+05  9.99e-03 2.66e-10  4.11e+01     0s
   3   2.66707221e+03 -1.40006476e+04  3.54e-13 6.01e-12  9.37e-01     0s
   4   7.31758800e+02 -3.00709154e+03  3.66e-13 1.01e-12  2.10e-01     0s
   5   4.91787751e+02 -1.41949739e+03  1.76e-13 5.00e-13  1.07e-01     0s
   6   2.89908143e+02 -4.12346521e+02  1.46e-13 4.55e-13  3.95e-02     0s
   7   1.64270611e+02 -4.80942598e+01  1.58e-13 9.09e-13  1.19e-02     0s
   8   1.13239301e+02  4.71197358e+01  7.17e-13 4.55e-13  3.72e-03     0s
   9   9.15373085e+01  7.50579886e+01  2.32e-12 9.09e-13  9.27e-04     0s
  10   8.84403936e+01  8.33202019e+01  3.08e-12 6.82e-13  2.88e-04     0s
  11   8.68427204e+01  8.39325864e+01  2.48e-11 4.55e-13  1.64e-04     0s
  12   8.67658070e+01  8.40547043e+01  2.39e-11 9.09e-13  1.52e-04     0s
  13   8.64136198e+01  8.41777651e+01  2.13e-11 4.55e-13  1.26e-04     0s
  14   8.63309580e+01  8.42590829e+01  5.02e-11 4.55e-13  1.16e-04     0s
  15   8.52223903e+01  8.43639137e+01  1.15e-10 9.09e-13  4.83e-05     0s
  16   8.47662895e+01  8.47026803e+01  8.36e-11 1.36e-12  3.58e-06     0s
  17   8.47202934e+01  8.47202297e+01  2.39e-10 9.09e-13  3.58e-09     0s
  18   8.47202474e+01  8.47202474e+01  9.68e-11 9.09e-13  5.92e-14     0s

Barrier solved model in 18 iterations and 0.34 seconds (0.22 work units)
Optimal objective 8.47202474e+01


Root relaxation: objective 8.472025e+01, 401 iterations, 0.25 seconds (0.10 work units)

    Nodes    |    Current Node    |     Objective Bounds      |     Work
 Expl Unexpl |  Obj  Depth IntInf | Incumbent    BestBd   Gap | It/Node Time

     0     0   84.72025    0    6  788.34300   84.72025  89.3%     -    0s
H    0     0                     691.5374706   84.72025  87.7%     -    0s
H    0     0                     105.4586122   93.60059  11.2%     -    0s
     0     0   93.60059    0    2  105.45861   93.60059  11.2%     -    0s
H    0     0                      95.6861333   93.60059  2.18%     -    0s
H    0     0                      94.4336122   93.60059  0.88%     -    0s
     0     0   94.09009    0    1   94.43361   94.09009  0.36%     -    0s

Cutting planes:
  MIR: 80
  Relax-and-lift: 11

Explored 1 nodes (706 simplex iterations) in 0.54 seconds (0.35 work units)
Thread count was 36 (of 36 available processors)

Solution count 5: 94.4336 95.6861 105.459 ... 788.343

Optimal solution found (tolerance 1.00e-02)
Best objective 9.443361224095e+01, best bound 9.409008628527e+01, gap 0.3638%

Gurobi 9.5.0 (linux64) logging started Wed Nov 15 15:06:01 2023

Set parameter LogFile to value "/lustre1/scratch/348/vsc34888/JointResearch/05.Models/06.Benchmarking/D.Representative_days_based_on_RES_and_Demand/9n_ByStages_nc50/openStarNet_9n_ByStages_nc50.log"
Set parameter Method to value 2
Set parameter MIPFocus to value 1
Set parameter Presolve to value 2
Set parameter RINS to value 100
Set parameter MIPGap to value 0.01
Set parameter Threads to value 36
Set parameter TimeLimit to value 604800
Set parameter IterationLimit to value 760000000
No parameters matching 'relax_integrality' found
Gurobi Optimizer version 9.5.0 build v9.5.0rc5 (linux64)
Thread count: 36 physical cores, 36 logical processors, using up to 36 threads
Optimize a model with 14079 rows, 7314 columns and 35267 nonzeros
Model fingerprint: 0x1922184e
Coefficient statistics:
  Matrix range     [9e-04, 2e+03]
  Objective range  [1e+00, 1e+00]
  Bounds range     [4e-04, 2e+00]
  RHS range        [4e-04, 2e+01]
Presolve removed 12243 rows and 4118 columns
Presolve time: 0.01s
Presolved: 1836 rows, 3196 columns, 7021 nonzeros

Ordering time: 0.00s

Barrier statistics:
 AA' NZ     : 5.151e+03
 Factor NZ  : 1.887e+04 (roughly 2 MB of memory)
 Factor Ops : 2.325e+05 (less than 1 second per iteration)
 Threads    : 1

                  Objective                Residual
Iter       Primal          Dual         Primal    Dual     Compl     Time
   0   4.17920131e+05 -9.93612120e+06  4.23e+00 4.55e-13  3.45e+03     0s
   1   6.25263562e+04 -2.01270676e+06  4.66e-01 2.50e-12  4.22e+02     0s
   2   1.31562582e+04 -3.32459292e+05  1.97e-02 2.54e-12  5.11e+01     0s
   3   3.30144596e+03 -1.44316221e+04  5.08e-04 1.36e-12  2.54e+00     0s
   4   7.84528426e+02 -2.25875524e+03  1.48e-06 9.09e-13  4.35e-01     0s
   5   4.30882156e+02 -5.31228830e+02  2.18e-07 6.82e-13  1.37e-01     0s
   6   2.86988492e+02 -1.23366291e+02  1.15e-07 9.09e-13  5.86e-02     0s
   7   1.56986913e+02  3.31686656e+01  3.70e-08 9.09e-13  1.77e-02     0s
   8   9.97105088e+01  8.06490735e+01  1.97e-09 6.82e-13  2.72e-03     0s
   9   9.56301576e+01  9.19589562e+01  3.81e-10 4.55e-13  5.24e-04     0s
  10   9.46489869e+01  9.35967596e+01  6.21e-11 9.09e-13  1.50e-04     0s
  11   9.44493260e+01  9.43728678e+01  3.24e-12 9.09e-13  1.09e-05     0s
  12   9.44336541e+01  9.44335200e+01  2.40e-12 9.09e-13  1.91e-08     0s
  13   9.44336123e+01  9.44336121e+01  1.52e-12 4.55e-13  1.91e-11     0s

Barrier solved model in 13 iterations and 0.03 seconds (0.03 work units)
Optimal objective 9.44336123e+01

Crossover log...

     604 DPushes remaining with DInf 0.0000000e+00                 0s
       0 DPushes remaining with DInf 0.0000000e+00                 0s

      67 PPushes remaining with PInf 0.0000000e+00                 0s
       0 PPushes remaining with PInf 0.0000000e+00                 0s

  Push phase complete: Pinf 0.0000000e+00, Dinf 1.1017576e-13      0s

Iteration    Objective       Primal Inf.    Dual Inf.      Time
     102    9.4433612e+01   0.000000e+00   0.000000e+00      0s

Solved in 102 iterations and 0.04 seconds (0.03 work units)
Optimal objective  9.443361224e+01

Gurobi 10.0.0 (win64) logging started Thu Nov 30 22:17:47 2023

Set parameter LogFile to value "C:\Users\ealvarezq\Documents\GitHub\Comillas\Models\JointResearch\05. Models\06.Benchmarking\D.Representative_days_based_on_RES_and_Demand\9n_ByStages_nc50/openStarNet_9n_ByStages_nc50.log"
Set parameter Method to value 2
Set parameter MIPFocus to value 1
Set parameter Presolve to value 2
Set parameter RINS to value 100
Set parameter MIPGap to value 0.01
Set parameter Threads to value 9
Set parameter TimeLimit to value 259200
Set parameter IterationLimit to value 760000000
Gurobi Optimizer version 10.0.0 build v10.0.0rc2 (win64)

CPU model: Intel(R) Core(TM) i7-8700 CPU @ 3.20GHz, instruction set [SSE2|AVX|AVX2]
Thread count: 6 physical cores, 12 logical processors, using up to 9 threads

Optimize a model with 13366 rows, 7071 columns and 40298 nonzeros
Model fingerprint: 0x885880c2
Variable types: 7035 continuous, 36 integer (36 binary)
Coefficient statistics:
  Matrix range     [9e-04, 9e+02]
  Objective range  [1e+00, 1e+00]
  Bounds range     [4e-04, 2e+00]
  RHS range        [4e-04, 1e+00]
Presolve removed 4543 rows and 2401 columns
Presolve time: 0.06s
Presolved: 8823 rows, 4670 columns, 30134 nonzeros
Variable types: 4634 continuous, 36 integer (36 binary)
Found heuristic solution: objective 832.2993182
Root relaxation presolved: 8823 rows, 4670 columns, 30134 nonzeros

Root barrier log...

Ordering time: 0.00s

Barrier statistics:
 Dense cols : 36
 AA' NZ     : 1.045e+05
 Factor NZ  : 2.069e+05 (roughly 7 MB of memory)
 Factor Ops : 6.891e+06 (less than 1 second per iteration)
 Threads    : 9

                  Objective                Residual
Iter       Primal          Dual         Primal    Dual     Compl     Time
   0   4.84308768e+05 -1.84365871e+07  7.23e+00 1.85e+02  4.16e+03     0s
   1   7.86016888e+04 -7.47606553e+06  1.00e+00 1.38e-09  6.38e+02     0s
   2   1.43091958e+04 -1.76896110e+06  2.58e-02 1.23e-09  1.05e+02     0s
   3   4.59814592e+03 -4.04165832e+04  3.06e-14 9.70e-11  2.60e+00     0s
   4   1.23319326e+03 -8.94266433e+03  1.07e-14 1.92e-11  5.88e-01     0s
   5   7.67125259e+02 -2.72492953e+03  7.72e-15 5.90e-12  2.02e-01     0s
   6   5.54844664e+02 -9.10671670e+02  1.51e-14 2.07e-12  8.47e-02     0s
   7   2.62685504e+02 -1.37758674e+02  6.93e-14 6.70e-13  2.32e-02     0s
   8   1.74916403e+02  2.76522017e+01  1.06e-12 9.56e-13  8.51e-03     0s
   9   1.12734476e+02  7.14852735e+01  1.63e-12 7.68e-13  2.38e-03     0s
  10   9.59418282e+01  8.77338169e+01  8.38e-12 8.27e-13  4.75e-04     0s
  11   9.29052955e+01  8.85277499e+01  1.99e-11 7.41e-13  2.53e-04     0s
  12   9.21138299e+01  8.85657264e+01  1.81e-11 7.60e-13  2.05e-04     0s
  13   9.10484674e+01  8.91441852e+01  1.90e-11 6.78e-13  1.10e-04     0s
  14   9.07198353e+01  8.91318471e+01  2.10e-11 8.68e-13  9.18e-05     0s
  15   8.99117878e+01  8.93002350e+01  2.36e-10 7.16e-13  3.54e-05     0s
  16   8.95972761e+01  8.93802886e+01  7.53e-11 6.96e-13  1.25e-05     0s
  17   8.94275516e+01  8.94109282e+01  4.19e-10 8.96e-13  9.61e-07     0s
  18   8.94126255e+01  8.94126246e+01  6.18e-11 8.18e-13  5.20e-11     0s

Barrier solved model in 18 iterations and 0.21 seconds (0.22 work units)
Optimal objective 8.94126255e+01


Root relaxation: objective 8.941262e+01, 387 iterations, 0.13 seconds (0.10 work units)

    Nodes    |    Current Node    |     Objective Bounds      |     Work
 Expl Unexpl |  Obj  Depth IntInf | Incumbent    BestBd   Gap | It/Node Time

     0     0   89.41262    0    6  832.29932   89.41262  89.3%     -    0s
H    0     0                     689.1375498   89.41262  87.0%     -    0s
     0     0   98.18048    0    2  689.13755   98.18048  85.8%     -    0s
H    0     0                      99.3124275   98.18048  1.14%     -    0s
     0     0   98.55333    0    1   99.31243   98.55333  0.76%     -    0s

Cutting planes:
  MIR: 37
  Relax-and-lift: 6

Explored 1 nodes (621 simplex iterations) in 0.48 seconds (0.33 work units)
Thread count was 9 (of 12 available processors)

Solution count 3: 99.3124 689.138 832.299 

Optimal solution found (tolerance 1.00e-02)
Best objective 9.931242754635e+01, best bound 9.855332690668e+01, gap 0.7644%

Gurobi 10.0.0 (win64) logging started Thu Nov 30 22:17:48 2023

Set parameter LogFile to value "C:\Users\ealvarezq\Documents\GitHub\Comillas\Models\JointResearch\05. Models\06.Benchmarking\D.Representative_days_based_on_RES_and_Demand\9n_ByStages_nc50/openStarNet_9n_ByStages_nc50.log"
Set parameter Method to value 2
Set parameter MIPFocus to value 1
Set parameter Presolve to value 2
Set parameter RINS to value 100
Set parameter MIPGap to value 0.01
Set parameter Threads to value 9
Set parameter TimeLimit to value 259200
Set parameter IterationLimit to value 760000000
No parameters matching 'relax_integrality' found
Gurobi Optimizer version 10.0.0 build v10.0.0rc2 (win64)

CPU model: Intel(R) Core(TM) i7-8700 CPU @ 3.20GHz, instruction set [SSE2|AVX|AVX2]
Thread count: 6 physical cores, 12 logical processors, using up to 9 threads

Optimize a model with 13366 rows, 7035 columns and 32918 nonzeros
Model fingerprint: 0xa13825db
Coefficient statistics:
  Matrix range     [9e-04, 9e+02]
  Objective range  [1e+00, 1e+00]
  Bounds range     [4e-04, 2e+00]
  RHS range        [4e-04, 2e+01]
Presolve removed 12212 rows and 4715 columns
Presolve time: 0.01s
Presolved: 1154 rows, 2371 columns, 5138 nonzeros

Ordering time: 0.00s

Barrier statistics:
 AA' NZ     : 2.474e+03
 Factor NZ  : 1.210e+04 (roughly 2 MB of memory)
 Factor Ops : 1.675e+05 (less than 1 second per iteration)
 Threads    : 1

                  Objective                Residual
Iter       Primal          Dual         Primal    Dual     Compl     Time
   0   4.63089616e+05 -1.11041396e+07  5.89e+00 4.76e+02  9.86e+03     0s
   1   7.93769621e+04 -5.26966091e+06  8.43e-01 9.09e-12  1.73e+03     0s
   2   1.77063798e+04 -1.48422582e+06  2.73e-02 9.09e-12  2.90e+02     0s
   3   9.95091212e+03 -4.43177708e+04  5.02e-14 7.28e-12  1.00e+01     0s
   4   1.32883662e+03 -4.38766504e+03  6.82e-14 2.73e-12  1.06e+00     0s
   5   7.35853639e+02 -1.39738089e+03  2.39e-14 1.61e-12  3.95e-01     0s
   6   4.69089719e+02 -3.34054771e+02  1.29e-14 2.21e-12  1.49e-01     0s
   7   2.18744606e+02 -3.77988192e+01  2.11e-14 1.55e-12  4.75e-02     0s
   8   1.48244654e+02  5.29215425e+01  1.19e-13 2.66e-12  1.76e-02     0s
   9   1.13116221e+02  8.66686933e+01  2.83e-13 2.15e-12  4.89e-03     0s
  10   1.00791409e+02  9.66500640e+01  1.67e-12 8.45e-13  7.66e-04     0s
  11   9.94190419e+01  9.91347468e+01  8.48e-13 1.38e-12  5.26e-05     0s
  12   9.93136521e+01  9.93116498e+01  7.11e-13 3.45e-12  3.70e-07     0s
  13   9.93124275e+01  9.93124275e+01  1.24e-13 1.53e-12  7.16e-13     0s

Barrier solved model in 13 iterations and 0.03 seconds (0.02 work units)
Optimal objective 9.93124275e+01

Crossover log...

     594 DPushes remaining with DInf 0.0000000e+00                 0s
       0 DPushes remaining with DInf 0.0000000e+00                 0s

      20 PPushes remaining with PInf 0.0000000e+00                 0s
       0 PPushes remaining with PInf 0.0000000e+00                 0s

  Push phase complete: Pinf 0.0000000e+00, Dinf 2.5108735e-13      0s

Iteration    Objective       Primal Inf.    Dual Inf.      Time
      50    9.9312428e+01   0.000000e+00   0.000000e+00      0s

Solved in 50 iterations and 0.03 seconds (0.03 work units)
Optimal objective  9.931242755e+01
